rc101_3
0 73 12 8 38 40 77 42 79 62 28 0 0 52 7 11 49 45 13 89 72 32 78 65 83 71 90 87 58 2 2 2 2 2 22 1 1 70 2 0 0 0 0 0 0 99 26 54 56 53 23 24 27 68 81 92 64 2 2 18 91 63 30 35 33 37 34 80 102 2 2 20 21 9 1 1 75 50 84 31 36 44 47 48 41 43 88 19 82 59 46 76 0